certificates/rado_a15_c243_N39.cnf
c Rad2 upper bound instance: x1 + 15*x2 - x3 = 243, interval [1,39]
p cnf 39 204
1 13 17 0
-1 -13 -17 0
1 18 28 0
-1 -18 -28 0
2 14 17 0
-2 -14 -17 0
2 18 29 0
-2 -18 -29 0
3 15 17 0
-3 -15 -17 0
3 18 30 0
-3 -18 -30 0
1 4 16 0
-1 -4 -16 0
4 16 17 0
-4 -16 -17 0
4 18 31 0
-4 -18 -31 0
2 5 16 0
-2 -5 -16 0
5 17 0
-5 -17 0
5 18 32 0
-5 -18 -32 0
3 6 16 0
-3 -6 -16 0
6 17 18 0
-6 -17 -18 0
6 18 33 0
-6 -18 -33 0
4 7 16 0
-4 -7 -16 0
7 17 19 0
-7 -17 -19 0
7 18 34 0
-7 -18 -34 0
5 8 16 0
-5 -8 -16 0
8 17 20 0
-8 -17 -20 0
8 18 35 0
-8 -18 -35 0
6 9 16 0
-6 -9 -16 0
9 17 21 0
-9 -17 -21 0
9 18 36 0
-9 -18 -36 0
7 10 16 0
-7 -10 -16 0
10 17 22 0
-10 -17 -22 0
10 18 37 0
-10 -18 -37 0
8 11 16 0
-8 -11 -16 0
11 17 23 0
-11 -17 -23 0
11 18 38 0
-11 -18 -38 0
9 12 16 0
-9 -12 -16 0
12 17 24 0
-12 -17 -24 0
12 18 39 0
-12 -18 -39 0
10 13 16 0
-10 -13 -16 0
13 17 25 0
-13 -17 -25 0
11 14 16 0
-11 -14 -16 0
14 17 26 0
-14 -17 -26 0
12 15 16 0
-12 -15 -16 0
15 17 27 0
-15 -17 -27 0
13 16 0
-13 -16 0
16 17 28 0
-16 -17 -28 0
14 16 17 0
-14 -16 -17 0
17 29 0
-17 -29 0
15 16 18 0
-15 -16 -18 0
17 18 30 0
-17 -18 -30 0
1 15 19 0
-1 -15 -19 0
16 19 0
-16 -19 0
17 19 31 0
-17 -19 -31 0
2 15 20 0
-2 -15 -20 0
16 17 20 0
-16 -17 -20 0
17 20 32 0
-17 -20 -32 0
3 15 21 0
-3 -15 -21 0
16 18 21 0
-16 -18 -21 0
17 21 33 0
-17 -21 -33 0
4 15 22 0
-4 -15 -22 0
16 19 22 0
-16 -19 -22 0
17 22 34 0
-17 -22 -34 0
5 15 23 0
-5 -15 -23 0
16 20 23 0
-16 -20 -23 0
17 23 35 0
-17 -23 -35 0
6 15 24 0
-6 -15 -24 0
16 21 24 0
-16 -21 -24 0
17 24 36 0
-17 -24 -36 0
7 15 25 0
-7 -15 -25 0
16 22 25 0
-16 -22 -25 0
17 25 37 0
-17 -25 -37 0
8 15 26 0
-8 -15 -26 0
16 23 26 0
-16 -23 -26 0
17 26 38 0
-17 -26 -38 0
9 15 27 0
-9 -15 -27 0
16 24 27 0
-16 -24 -27 0
17 27 39 0
-17 -27 -39 0
10 15 28 0
-10 -15 -28 0
16 25 28 0
-16 -25 -28 0
11 15 29 0
-11 -15 -29 0
16 26 29 0
-16 -26 -29 0
12 15 30 0
-12 -15 -30 0
16 27 30 0
-16 -27 -30 0
13 15 31 0
-13 -15 -31 0
16 28 31 0
-16 -28 -31 0
14 15 32 0
-14 -15 -32 0
16 29 32 0
-16 -29 -32 0
15 33 0
-15 -33 0
16 30 33 0
-16 -30 -33 0
1 14 34 0
-1 -14 -34 0
15 16 34 0
-15 -16 -34 0
16 31 34 0
-16 -31 -34 0
2 14 35 0
-2 -14 -35 0
15 17 35 0
-15 -17 -35 0
16 32 35 0
-16 -32 -35 0
3 14 36 0
-3 -14 -36 0
15 18 36 0
-15 -18 -36 0
16 33 36 0
-16 -33 -36 0
4 14 37 0
-4 -14 -37 0
15 19 37 0
-15 -19 -37 0
16 34 37 0
-16 -34 -37 0
5 14 38 0
-5 -14 -38 0
15 20 38 0
-15 -20 -38 0
16 35 38 0
-16 -35 -38 0
6 14 39 0
-6 -14 -39 0
15 21 39 0
-15 -21 -39 0
16 36 39 0
-16 -36 -39 0
