certificates/rado_a15_c243_N39.drat
16 -37 -39 0
-18 -16 -37 0
-37 -39 0
d 16 -37 -39 0
-16 18 37 0
18 -39 0
16 11 -39 0
-16 -39 0
-18 -39 0
d -12 -18 -39 0
-39 0
16 -18 0
-18 0
12 0
-16 0
13 0
19 0
36 0
21 0
15 0
-3 0
-1 0
-30 0
-31 0
-33 0
-37 0
6 0
0
